Set parameter TokenServer to value "hpc-licenses.hpcc.usc.edu"
Set parameter TimeLimit to value 3600
Gurobi Optimizer version 9.5.1 build v9.5.1rc2 (linux64)
Thread count: 20 physical cores, 20 logical processors, using up to 20 threads
Optimize a model with 14015 rows, 10581 columns and 64598 nonzeros
Model fingerprint: 0xa238710b
Variable types: 10514 continuous, 67 integer (67 binary)
Coefficient statistics:
  Matrix range     [1e+00, 1e+00]
  Objective range  [9e-03, 1e+00]
  Bounds range     [1e+00, 1e+00]
  RHS range        [1e+00, 1e+02]
Presolve removed 3061 rows and 3048 columns
Presolve time: 0.20s
Presolved: 10954 rows, 7533 columns, 59849 nonzeros
Variable types: 7473 continuous, 60 integer (60 binary)
Found heuristic solution: objective 256.2812607

Root relaxation: objective 2.610221e+02, 3961 iterations, 0.21 seconds (0.23 work units)

    Nodes    |    Current Node    |     Objective Bounds      |     Work
 Expl Unexpl |  Obj  Depth IntInf | Incumbent    BestBd   Gap | It/Node Time

     0     0  261.02208    0    8  256.28126  261.02208  1.85%     -    0s
     0     0  260.98914    0    9  256.28126  260.98914  1.84%     -    1s
     0     0  260.98914    0    9  256.28126  260.98914  1.84%     -    1s
     0     0  260.94243    0    8  256.28126  260.94243  1.82%     -    1s
     0     0  260.93369    0    8  256.28126  260.93369  1.82%     -    1s
H    0     0                     259.3767647  260.93369  0.60%     -    1s
     0     0  260.82460    0    9  259.37676  260.82460  0.56%     -    1s
     0     0  260.80390    0    9  259.37676  260.80390  0.55%     -    1s
     0     0  260.80390    0   11  259.37676  260.80390  0.55%     -    2s
     0     0  260.80390    0   10  259.37676  260.80390  0.55%     -    2s
     0     0  260.80390    0   11  259.37676  260.80390  0.55%     -    2s
     0     0  260.80390    0   11  259.37676  260.80390  0.55%     -    2s
     0     0  260.78600    0   13  259.37676  260.78600  0.54%     -    2s
     0     0  260.78600    0   10  259.37676  260.78600  0.54%     -    2s
     0     2  260.78600    0   10  259.37676  260.78600  0.54%     -    3s
     3     4  260.78600    2    7  259.37676  260.78600  0.54%  1096    5s
*   10     6               3     259.4283871  260.78600  0.52%   929    5s
*   21    12               5     259.5628934  260.78600  0.47%   717    6s
H   66    16                     259.7997664  260.45691  0.25%   402    8s
*   95     6              11     259.8596967  260.36831  0.20%   346    9s
   111     6  260.32649   14   10  259.85970  260.35508  0.19%   334   10s

Cutting planes:
  Gomory: 1
  MIR: 47
  Flow cover: 5
  RLT: 16
  Relax-and-lift: 5

Explored 155 nodes (55470 simplex iterations) in 11.53 seconds (4.49 work units)
Thread count was 20 (of 20 available processors)

Solution count 6: 259.86 259.8 259.563 ... 256.281

Optimal solution found (tolerance 1.00e-04)
Best objective 2.598596966700e+02, best bound 2.598596966700e+02, gap 0.0000%



#########node  1
V2.6
#########node  2
V1.9
#########node  3
V1.8
#########node  4
0.0,1.0
#########node  5
1.0,0.0
#########node  6
0.0,1.0
#########node  7
1.0,0.0


Total Solving Time 12.4313223361969
obj value 259.85969667000217
Policy Regret train (Sum) 0.7304099312861455
Best Treatment Found train (%) 91.8
treatment classification acc train (%) 57.599999999999994
Policy Regret test (Sum) 102.93982789453857
Best Treatment Found test (%) 66.3
treatment classification acc test (%) 57.879999999999995
Set parameter TokenServer to value "hpc-licenses.hpcc.usc.edu"
Set parameter TimeLimit to value 3600
Gurobi Optimizer version 9.5.1 build v9.5.1rc2 (linux64)
Thread count: 20 physical cores, 20 logical processors, using up to 20 threads
Optimize a model with 14015 rows, 10581 columns and 64598 nonzeros
Model fingerprint: 0xa238710b
Variable types: 10514 continuous, 67 integer (67 binary)
Coefficient statistics:
  Matrix range     [1e+00, 1e+00]
  Objective range  [9e-03, 1e+00]
  Bounds range     [1e+00, 1e+00]
  RHS range        [1e+00, 1e+02]
Presolve removed 3061 rows and 3048 columns
Presolve time: 0.26s
Presolved: 10954 rows, 7533 columns, 59849 nonzeros
Variable types: 7473 continuous, 60 integer (60 binary)
Found heuristic solution: objective 256.2812607

Root relaxation: objective 2.610221e+02, 3961 iterations, 0.26 seconds (0.23 work units)

    Nodes    |    Current Node    |     Objective Bounds      |     Work
 Expl Unexpl |  Obj  Depth IntInf | Incumbent    BestBd   Gap | It/Node Time

     0     0  261.02208    0    8  256.28126  261.02208  1.85%     -    0s
     0     0  260.98914    0    9  256.28126  260.98914  1.84%     -    1s
     0     0  260.98914    0    9  256.28126  260.98914  1.84%     -    1s
     0     0  260.94243    0    8  256.28126  260.94243  1.82%     -    1s
     0     0  260.93369    0    8  256.28126  260.93369  1.82%     -    1s
H    0     0                     259.3767647  260.93369  0.60%     -    2s
     0     0  260.82460    0    9  259.37676  260.82460  0.56%     -    2s
     0     0  260.80390    0    9  259.37676  260.80390  0.55%     -    2s
     0     0  260.80390    0   11  259.37676  260.80390  0.55%     -    2s
     0     0  260.80390    0   10  259.37676  260.80390  0.55%     -    2s
     0     0  260.80390    0   11  259.37676  260.80390  0.55%     -    2s
     0     0  260.80390    0   11  259.37676  260.80390  0.55%     -    2s
     0     0  260.78600    0   13  259.37676  260.78600  0.54%     -    3s
     0     0  260.78600    0   10  259.37676  260.78600  0.54%     -    3s
     0     2  260.78600    0   10  259.37676  260.78600  0.54%     -    3s
     3     4  260.78600    2    7  259.37676  260.78600  0.54%  1096    5s
*   10     6               3     259.4283871  260.78600  0.52%   929    6s
*   21    12               5     259.5628934  260.78600  0.47%   717    7s
    64    16  260.46490    9    9  259.56289  260.51169  0.37%   403   10s
H   66    16                     259.7997664  260.45691  0.25%   402   10s
*   95     6              11     259.8596967  260.36831  0.20%   346   11s
   152     1  259.97595   24    4  259.85970  259.97595  0.04%   307   15s

Cutting planes:
  Gomory: 1
  MIR: 47
  Flow cover: 5
  RLT: 16
  Relax-and-lift: 5

Explored 155 nodes (55470 simplex iterations) in 15.08 seconds (4.49 work units)
Thread count was 20 (of 20 available processors)

Solution count 6: 259.86 259.8 259.563 ... 256.281

Optimal solution found (tolerance 1.00e-04)
Best objective 2.598596966700e+02, best bound 2.598596966700e+02, gap 0.0000%



#########node  1
V2.6
#########node  2
V1.9
#########node  3
V1.8
#########node  4
0.0,1.0
#########node  5
1.0,0.0
#########node  6
0.0,1.0
#########node  7
1.0,0.0


Total Solving Time 16.06817317008972
obj value 259.85969667000217
Policy Regret train (Sum) 0.7304099312861455
Best Treatment Found train (%) 91.8
treatment classification acc train (%) 57.599999999999994
Policy Regret test (Sum) 102.93982789453857
Best Treatment Found test (%) 66.3
treatment classification acc test (%) 57.879999999999995
